tsp_instances/TSP20/instance127.tsp
NODE_COORD_SECTION
0 96 104
1 92 176
2 34 91
3 68 195
4 22 5
5 3 112
6 136 94
7 149 27
8 136 193
9 126 55
10 158 13
11 180 54
12 163 200
13 84 12
14 90 184
15 185 170
16 93 87
17 70 22
18 49 187
19 89 138
