tsp_instances/TSP20/instance127.opt.tour
TOUR_SECTION
1
17
7
12
11
8
10
14
18
5
3
6
19
4
15
2
9
13
16
20
-1